Please solve the following SAT Problem encoded in DIMACS format, provide line of thoughts, write your final answer as a single solution at the end of response with header 'answer: ' : 
p cnf 10 45
-7 -2 4 0
9 10 4 0
-7 2 8 0
-10 -9 -5 0
1 -10 6 0
-2 -6 -3 0
8 1 -7 0
-5 -9 -1 0
3 6 4 0
-9 -1 -8 0
-10 6 -8 0
-2 -10 4 0
-1 -5 7 0
-1 6 3 0
-9 -5 -7 0
2 -9 7 0
3 -5 -7 0
-7 3 -9 0
-7 4 6 0
1 3 -9 0
-7 -2 8 0
-2 -7 8 0
-10 -9 3 0
-1 -7 3 0
-8 4 3 0
-2 5 -7 0
6 -9 -5 0
6 -7 3 0
-2 3 -9 0
-6 -1 -5 0
-1 7 -10 0
-1 6 8 0
-7 -8 -4 0
4 -1 3 0
-5 -7 1 0
3 4 -5 0
-8 -2 -1 0
-2 8 1 0
-2 4 -5 0
-2 4 -6 0
-7 -1 3 0
8 -1 -10 0
-3 6 10 0
9 7 3 0
-2 -10 -7 0

